Maximize
 obj: + x0 + x1 + x2 + x3 + x4 + x5 + x6 + x7 + x8 + x9 + x10 + x11 + x12 + x13 + x14 + x15 + x16 + x17 + x18 + x19 + x20 + x21 + x22 + x23 + x24 + x25 + x26 + x27 + x28 + x29 + x30 + x31 + x32 + x33 + x34 + x35 + x36 + x37 + x38 + x39 + x40 + x41 + x42 + x43 + x44 + x45 + x46 + x47 + x48 + x49 + x50 + x51 + x52 + x53 + x54 + x55 + x56 + x57 + x58 + x59 + x60 + x61 + x62 + x63
Subject To
c0:  +1 x0 + x1 + x2 + x3 + x4 + x8 + x12 + x16 + x32 + x48 <= 1
c1:  +2 x1 + x0 + x2 + x3 + x4 + x5 + x8 + x9 + x12 + x13 + x16 + x17 + x32 + x33 + x48 + x49 <= 2
c2:  +4 x2 + x0 + x1 + x3 + x4 + x5 + x6 + x8 + x9 + x10 + x12 + x13 + x14 + x16 + x17 + x18 + x32 + x33 + x34 + x48 + x49 + x50 <= 4
c3:  +6 x3 + x0 + x1 + x2 + x4 + x5 + x6 + x7 + x8 + x9 + x10 + x11 + x12 + x13 + x14 + x15 + x16 + x17 + x18 + x19 + x32 + x33 + x34 + x35 + x48 + x49 + x50 + x51 <= 6
c4:  +2 x4 + x0 + x1 + x2 + x3 + x5 + x6 + x7 + x8 + x12 + x16 + x20 + x32 + x36 + x48 + x52 <= 2
c5:  +5 x5 + x1 + x2 + x3 + x4 + x6 + x7 + x8 + x9 + x12 + x13 + x17 + x20 + x21 + x33 + x36 + x37 + x49 + x52 + x53 <= 5
c6:  +6 x6 + x2 + x3 + x4 + x5 + x7 + x8 + x9 + x10 + x12 + x13 + x14 + x18 + x20 + x21 + x22 + x34 + x36 + x37 + x38 + x50 + x52 + x53 + x54 <= 6
c7:  +6 x7 + x3 + x4 + x5 + x6 + x8 + x9 + x10 + x11 + x12 + x13 + x14 + x15 + x19 + x20 + x21 + x22 + x23 + x35 + x36 + x37 + x38 + x39 + x51 + x52 + x53 + x54 + x55 <= 6
c8:  +4 x8 + x0 + x1 + x2 + x3 + x4 + x5 + x6 + x7 + x9 + x10 + x11 + x12 + x16 + x20 + x24 + x32 + x36 + x40 + x48 + x52 + x56 <= 4
c9:  +6 x9 + x1 + x2 + x3 + x5 + x6 + x7 + x8 + x10 + x11 + x12 + x13 + x17 + x21 + x24 + x25 + x33 + x37 + x40 + x41 + x49 + x53 + x56 + x57 <= 6
c10:  +5 x10 + x2 + x3 + x6 + x7 + x8 + x9 + x11 + x12 + x13 + x14 + x18 + x22 + x24 + x25 + x26 + x34 + x38 + x40 + x41 + x42 + x50 + x54 + x56 + x57 + x58 <= 5
c11:  +5 x11 + x3 + x7 + x8 + x9 + x10 + x12 + x13 + x14 + x15 + x19 + x23 + x24 + x25 + x26 + x27 + x35 + x39 + x40 + x41 + x42 + x43 + x51 + x55 + x56 + x57 + x58 + x59 <= 5
c12:  +6 x12 + x0 + x1 + x2 + x3 + x4 + x5 + x6 + x7 + x8 + x9 + x10 + x11 + x13 + x14 + x15 + x16 + x20 + x24 + x28 + x32 + x36 + x40 + x44 + x48 + x52 + x56 + x60 <= 6
c13:  +6 x13 + x1 + x2 + x3 + x5 + x6 + x7 + x9 + x10 + x11 + x12 + x14 + x15 + x17 + x21 + x25 + x28 + x29 + x33 + x37 + x41 + x44 + x45 + x49 + x53 + x57 + x60 + x61 <= 6
c14:  +5 x14 + x2 + x3 + x6 + x7 + x10 + x11 + x12 + x13 + x15 + x18 + x22 + x26 + x28 + x29 + x30 + x34 + x38 + x42 + x44 + x45 + x46 + x50 + x54 + x58 + x60 + x61 + x62 <= 5
c15:  +4 x15 + x3 + x7 + x11 + x12 + x13 + x14 + x19 + x23 + x27 + x28 + x29 + x30 + x31 + x35 + x39 + x43 + x44 + x45 + x46 + x47 + x51 + x55 + x59 + x60 + x61 + x62 + x63 <= 4
c16:  +2 x16 + x0 + x1 + x2 + x3 + x4 + x8 + x12 + x17 + x18 + x19 + x20 + x24 + x28 + x32 + x48 <= 2
c17:  +3 x17 + x1 + x2 + x3 + x5 + x9 + x13 + x16 + x18 + x19 + x20 + x21 + x24 + x25 + x28 + x29 + x32 + x33 + x48 + x49 <= 3
c18:  +5 x18 + x2 + x3 + x6 + x10 + x14 + x16 + x17 + x19 + x20 + x21 + x22 + x24 + x25 + x26 + x28 + x29 + x30 + x32 + x33 + x34 + x48 + x49 + x50 <= 5
c19:  +7 x19 + x3 + x7 + x11 + x15 + x16 + x17 + x18 + x20 + x21 + x22 + x23 + x24 + x25 + x26 + x27 + x28 + x29 + x30 + x31 + x32 + x33 + x34 + x35 + x48 + x49 + x50 + x51 <= 7
c20:  +3 x20 + x4 + x5 + x6 + x7 + x8 + x12 + x16 + x17 + x18 + x19 + x21 + x22 + x23 + x24 + x28 + x32 + x36 + x48 + x52 <= 3
c21:  +5 x21 + x5 + x6 + x7 + x9 + x13 + x17 + x18 + x19 + x20 + x22 + x23 + x24 + x25 + x28 + x29 + x33 + x36 + x37 + x49 + x52 + x53 <= 5
c22:  +6 x22 + x6 + x7 + x10 + x14 + x18 + x19 + x20 + x21 + x23 + x24 + x25 + x26 + x28 + x29 + x30 + x34 + x36 + x37 + x38 + x50 + x52 + x53 + x54 <= 6
c23:  +6 x23 + x7 + x11 + x15 + x19 + x20 + x21 + x22 + x24 + x25 + x26 + x27 + x28 + x29 + x30 + x31 + x35 + x36 + x37 + x38 + x39 + x51 + x52 + x53 + x54 + x55 <= 6
c24:  +5 x24 + x8 + x9 + x10 + x11 + x12 + x16 + x17 + x18 + x19 + x20 + x21 + x22 + x23 + x25 + x26 + x27 + x28 + x32 + x36 + x40 + x48 + x52 + x56 <= 5
c25:  +6 x25 + x9 + x10 + x11 + x13 + x17 + x18 + x19 + x21 + x22 + x23 + x24 + x26 + x27 + x28 + x29 + x33 + x37 + x40 + x41 + x49 + x53 + x56 + x57 <= 6
c26:  +5 x26 + x10 + x11 + x14 + x18 + x19 + x22 + x23 + x24 + x25 + x27 + x28 + x29 + x30 + x34 + x38 + x40 + x41 + x42 + x50 + x54 + x56 + x57 + x58 <= 5
c27:  +5 x27 + x11 + x15 + x19 + x23 + x24 + x25 + x26 + x28 + x29 + x30 + x31 + x35 + x39 + x40 + x41 + x42 + x43 + x51 + x55 + x56 + x57 + x58 + x59 <= 5
c28:  +7 x28 + x12 + x13 + x14 + x15 + x16 + x17 + x18 + x19 + x20 + x21 + x22 + x23 + x24 + x25 + x26 + x27 + x29 + x30 + x31 + x32 + x36 + x40 + x44 + x48 + x52 + x56 + x60 <= 7
c29:  +6 x29 + x13 + x14 + x15 + x17 + x18 + x19 + x21 + x22 + x23 + x25 + x26 + x27 + x28 + x30 + x31 + x33 + x37 + x41 + x44 + x45 + x49 + x53 + x57 + x60 + x61 <= 6
c30:  +5 x30 + x14 + x15 + x18 + x19 + x22 + x23 + x26 + x27 + x28 + x29 + x31 + x34 + x38 + x42 + x44 + x45 + x46 + x50 + x54 + x58 + x60 + x61 + x62 <= 5
c31:  +3 x31 + x15 + x19 + x23 + x27 + x28 + x29 + x30 + x35 + x39 + x43 + x44 + x45 + x46 + x47 + x51 + x55 + x59 + x60 + x61 + x62 + x63 <= 3
c32:  +3 x32 + x0 + x1 + x2 + x3 + x4 + x8 + x12 + x16 + x17 + x18 + x19 + x20 + x24 + x28 + x33 + x34 + x35 + x36 + x40 + x44 + x48 <= 3
c33:  +4 x33 + x1 + x2 + x3 + x5 + x9 + x13 + x17 + x18 + x19 + x21 + x25 + x29 + x32 + x34 + x35 + x36 + x37 + x40 + x41 + x44 + x45 + x48 + x49 <= 4
c34:  +6 x34 + x2 + x3 + x6 + x10 + x14 + x18 + x19 + x22 + x26 + x30 + x32 + x33 + x35 + x36 + x37 + x38 + x40 + x41 + x42 + x44 + x45 + x46 + x48 + x49 + x50 <= 6
c35:  +7 x35 + x3 + x7 + x11 + x15 + x19 + x23 + x27 + x31 + x32 + x33 + x34 + x36 + x37 + x38 + x39 + x40 + x41 + x42 + x43 + x44 + x45 + x46 + x47 + x48 + x49 + x50 + x51 <= 7
c36:  +4 x36 + x4 + x5 + x6 + x7 + x8 + x12 + x20 + x21 + x22 + x23 + x24 + x28 + x32 + x33 + x34 + x35 + x37 + x38 + x39 + x40 + x44 + x48 + x52 <= 4
c37:  +5 x37 + x5 + x6 + x7 + x9 + x13 + x21 + x22 + x23 + x25 + x29 + x33 + x34 + x35 + x36 + x38 + x39 + x40 + x41 + x44 + x45 + x49 + x52 + x53 <= 5
c38:  +6 x38 + x6 + x7 + x10 + x14 + x22 + x23 + x26 + x30 + x34 + x35 + x36 + x37 + x39 + x40 + x41 + x42 + x44 + x45 + x46 + x50 + x52 + x53 + x54 <= 6
c39:  +6 x39 + x7 + x11 + x15 + x23 + x27 + x31 + x35 + x36 + x37 + x38 + x40 + x41 + x42 + x43 + x44 + x45 + x46 + x47 + x51 + x52 + x53 + x54 + x55 <= 6
c40:  +6 x40 + x8 + x9 + x10 + x11 + x12 + x24 + x25 + x26 + x27 + x28 + x32 + x33 + x34 + x35 + x36 + x37 + x38 + x39 + x41 + x42 + x43 + x44 + x48 + x52 + x56 <= 6
c41:  +6 x41 + x9 + x10 + x11 + x13 + x25 + x26 + x27 + x29 + x33 + x34 + x35 + x37 + x38 + x39 + x40 + x42 + x43 + x44 + x45 + x49 + x53 + x56 + x57 <= 6
c42:  +5 x42 + x10 + x11 + x14 + x26 + x27 + x30 + x34 + x35 + x38 + x39 + x40 + x41 + x43 + x44 + x45 + x46 + x50 + x54 + x56 + x57 + x58 <= 5
c43:  +4 x43 + x11 + x15 + x27 + x31 + x35 + x39 + x40 + x41 + x42 + x44 + x45 + x46 + x47 + x51 + x55 + x56 + x57 + x58 + x59 <= 4
c44:  +7 x44 + x12 + x13 + x14 + x15 + x28 + x29 + x30 + x31 + x32 + x33 + x34 + x35 + x36 + x37 + x38 + x39 + x40 + x41 + x42 + x43 + x45 + x46 + x47 + x48 + x52 + x56 + x60 <= 7
c45:  +6 x45 + x13 + x14 + x15 + x29 + x30 + x31 + x33 + x34 + x35 + x37 + x38 + x39 + x41 + x42 + x43 + x44 + x46 + x47 + x49 + x53 + x57 + x60 + x61 <= 6
c46:  +4 x46 + x14 + x15 + x30 + x31 + x34 + x35 + x38 + x39 + x42 + x43 + x44 + x45 + x47 + x50 + x54 + x58 + x60 + x61 + x62 <= 4
c47:  +2 x47 + x15 + x31 + x35 + x39 + x43 + x44 + x45 + x46 + x51 + x55 + x59 + x60 + x61 + x62 + x63 <= 2
c48:  +4 x48 + x0 + x1 + x2 + x3 + x4 + x8 + x12 + x16 + x17 + x18 + x19 + x20 + x24 + x28 + x32 + x33 + x34 + x35 + x36 + x40 + x44 + x49 + x50 + x51 + x52 + x56 + x60 <= 4
c49:  +5 x49 + x1 + x2 + x3 + x5 + x9 + x13 + x17 + x18 + x19 + x21 + x25 + x29 + x33 + x34 + x35 + x37 + x41 + x45 + x48 + x50 + x51 + x52 + x53 + x56 + x57 + x60 + x61 <= 5
c50:  +6 x50 + x2 + x3 + x6 + x10 + x14 + x18 + x19 + x22 + x26 + x30 + x34 + x35 + x38 + x42 + x46 + x48 + x49 + x51 + x52 + x53 + x54 + x56 + x57 + x58 + x60 + x61 + x62 <= 6
c51:  +7 x51 + x3 + x7 + x11 + x15 + x19 + x23 + x27 + x31 + x35 + x39 + x43 + x47 + x48 + x49 + x50 + x52 + x53 + x54 + x55 + x56 + x57 + x58 + x59 + x60 + x61 + x62 + x63 <= 7
c52:  +5 x52 + x4 + x5 + x6 + x7 + x8 + x12 + x20 + x21 + x22 + x23 + x24 + x28 + x36 + x37 + x38 + x39 + x40 + x44 + x48 + x49 + x50 + x51 + x53 + x54 + x55 + x56 + x60 <= 5
c53:  +5 x53 + x5 + x6 + x7 + x9 + x13 + x21 + x22 + x23 + x25 + x29 + x37 + x38 + x39 + x41 + x45 + x49 + x50 + x51 + x52 + x54 + x55 + x56 + x57 + x60 + x61 <= 5
c54:  +6 x54 + x6 + x7 + x10 + x14 + x22 + x23 + x26 + x30 + x38 + x39 + x42 + x46 + x50 + x51 + x52 + x53 + x55 + x56 + x57 + x58 + x60 + x61 + x62 <= 6
c55:  +5 x55 + x7 + x11 + x15 + x23 + x27 + x31 + x39 + x43 + x47 + x51 + x52 + x53 + x54 + x56 + x57 + x58 + x59 + x60 + x61 + x62 + x63 <= 5
c56:  +6 x56 + x8 + x9 + x10 + x11 + x12 + x24 + x25 + x26 + x27 + x28 + x40 + x41 + x42 + x43 + x44 + x48 + x49 + x50 + x51 + x52 + x53 + x54 + x55 + x57 + x58 + x59 + x60 <= 6
c57:  +6 x57 + x9 + x10 + x11 + x13 + x25 + x26 + x27 + x29 + x41 + x42 + x43 + x45 + x49 + x50 + x51 + x53 + x54 + x55 + x56 + x58 + x59 + x60 + x61 <= 6
c58:  +5 x58 + x10 + x11 + x14 + x26 + x27 + x30 + x42 + x43 + x46 + x50 + x51 + x54 + x55 + x56 + x57 + x59 + x60 + x61 + x62 <= 5
c59:  +3 x59 + x11 + x15 + x27 + x31 + x43 + x47 + x51 + x55 + x56 + x57 + x58 + x60 + x61 + x62 + x63 <= 3
c60:  +7 x60 + x12 + x13 + x14 + x15 + x28 + x29 + x30 + x31 + x44 + x45 + x46 + x47 + x48 + x49 + x50 + x51 + x52 + x53 + x54 + x55 + x56 + x57 + x58 + x59 + x61 + x62 + x63 <= 7
c61:  +5 x61 + x13 + x14 + x15 + x29 + x30 + x31 + x45 + x46 + x47 + x49 + x50 + x51 + x53 + x54 + x55 + x57 + x58 + x59 + x60 + x62 + x63 <= 5
c62:  +3 x62 + x14 + x15 + x30 + x31 + x46 + x47 + x50 + x51 + x54 + x55 + x58 + x59 + x60 + x61 + x63 <= 3
c63:  +1 x63 + x15 + x31 + x47 + x51 + x55 + x59 + x60 + x61 + x62 <= 1



Binary
x0
x1
x2
x3
x4
x5
x6
x7
x8
x9
x10
x11
x12
x13
x14
x15
x16
x17
x18
x19
x20
x21
x22
x23
x24
x25
x26
x27
x28
x29
x30
x31
x32
x33
x34
x35
x36
x37
x38
x39
x40
x41
x42
x43
x44
x45
x46
x47
x48
x49
x50
x51
x52
x53
x54
x55
x56
x57
x58
x59
x60
x61
x62
x63


End